WARNING: for repeatability, setting FPU to use double precision
============================[ Problem Statistics ]=============================
|                                                                             |
|  Number of variables:           100                                         |
|  Number of clauses:             449                                         |
|  Parse time:                   0.00 s                                       |
|  Simplification time:          0.00 s                                       |
|                                                                             |
============================[ Search Statistics ]==============================
| Conflicts |          ORIGINAL         |          LEARNT          | Progress |
|           |    Vars  Clauses Literals |    Limit  Clauses Lit/Cl |          |
===============================================================================
|       100 |     100      448     1344 |      164      100      8 |  0.010 % |
|       250 |     100      448     1344 |      180      167      7 |  0.020 % |
===============================================================================
restarts              : 3
conflicts             : 323            (109048 /sec)
decisions             : 399            (0.00 % random) (134706 /sec)
propagations          : 7007           (2365631 /sec)
conflict literals     : 2124           (14.32 % deleted)
Memory used           : 13.00 MB
CPU time              : 0.002962 s

SATISFIABLE
